p td 176 264
1 2
1 3
1 4
2 3
2 4
3 4
5 22
5 6
5 23
6 22
6 23
7 8
7 140
7 108
8 140
8 108
9 176
9 41
9 10
10 176
10 41
11 124
11 91
11 12
12 91
12 124
13 26
13 19
13 14
14 26
14 19
15 16
15 56
15 55
16 56
16 55
17 18
17 52
17 173
18 52
18 173
19 26
20 40
20 21
20 158
21 40
21 158
22 23
24 25
24 141
24 143
25 141
25 143
27 130
27 123
27 28
28 123
28 130
29 36
29 37
29 30
30 36
30 37
31 32
31 150
31 126
32 150
32 126
33 136
33 34
33 35
34 136
34 35
35 136
36 37
38 104
38 107
38 39
39 104
39 107
40 158
41 176
42 43
42 46
42 47
43 46
43 47
44 114
44 45
44 111
45 114
45 111
46 47
48 160
48 49
48 159
49 160
49 159
50 51
50 117
50 71
51 117
51 71
52 173
53 152
53 54
53 151
54 152
54 151
55 56
57 58
57 85
57 86
58 85
58 86
59 120
59 60
59 118
60 120
60 118
61 144
61 145
61 62
62 144
62 145
63 64
63 67
63 68
64 67
64 68
65 66
65 69
65 70
66 69
66 70
67 68
69 70
71 117
72 168
72 73
72 131
73 168
73 131
74 75
74 78
74 79
75 78
75 79
76 80
76 81
76 77
77 80
77 81
78 79
80 81
82 83
82 84
82 142
83 84
83 142
84 142
85 86
87 88
87 100
87 101
88 100
88 101
89 90
89 132
89 133
90 132
90 133
91 124
92 96
92 97
92 93
93 96
93 97
94 119
94 167
94 95
95 167
95 119
96 97
98 154
98 99
98 155
99 155
99 154
100 101
102 105
102 106
102 103
103 105
103 106
104 107
105 106
108 140
109 161
109 162
109 110
110 161
110 162
111 114
112 113
112 149
112 153
113 153
113 149
115 146
115 116
115 157
116 146
116 157
118 120
119 167
121 122
121 125
121 127
122 125
122 127
123 130
125 127
126 150
128 129
128 148
128 156
129 156
129 148
131 168
132 133
134 137
134 147
134 135
135 137
135 147
137 147
138 139
138 165
138 166
139 165
139 166
141 143
144 145
146 157
148 156
149 153
151 152
154 155
159 160
161 162
163 169
163 170
163 164
164 169
164 170
165 166
169 170
171 172
171 174
171 175
172 174
172 175
174 175
